proyfinal/src/viki/013/experimentInOfficeAgust.take6.output/71a51cb0-6019-467e-b8da-e2bda7fd1245.als.out
Reading from standard input... Use '--help' for help.
============================[ Problem Statistics ]=============================
|                                                                             |
|  Number of variables:         87638                                         |
|  Number of clauses:          161767                                         |
|  Parse time:                   0.03 s                                       |
|                                                                             |
============================[ Search Statistics ]==============================
| Conflicts |          ORIGINAL         |          LEARNT          | Progress |
|           |    Vars  Clauses Literals |    Limit  Clauses Lit/Cl |          |
===============================================================================
|       100 |   62156   104548   260746 |    38334      100     15 | 29.076 % |
|       250 |   62156   104548   260746 |    42167      250     43 | 29.076 % |
|       475 |   62156   104548   260746 |    46384      475     44 | 29.077 % |
|       812 |   62156   104548   260746 |    51022      812     41 | 29.076 % |
|      1318 |   62156   104548   260746 |    56125     1318     49 | 29.076 % |
|      2077 |   62140   104482   260593 |    61737     2076     59 | 29.095 % |
|      3216 |   62103   104332   260244 |    67911     3211     70 | 29.137 % |
|      4924 |   62102   104288   260154 |    74702     4918     73 | 29.138 % |
|      7486 |   62064   104136   259793 |    82172     7476     79 | 29.181 % |
|     11330 |   52967    76768   192682 |    90390    10739     75 | 39.562 % |
|     17096 |   52748    76009   190884 |    99429    15833     68 | 39.811 % |
===============================================================================
restarts              : 63
conflicts             : 18829          (7803 /sec)
decisions             : 57350          (0.00 % random) (23766 /sec)
propagations          : 24322102       (10079035 /sec)
conflict literals     : 1241067        (49.21 % deleted)
Memory used           : 35.41 MB
CPU time              : 2.41314 s

UNSATISFIABLE
